
Gurobi 9.5.0 (linux64) logging started Fri Dec 15 10:38:50 2023

Set parameter LogFile to value "/lustre1/scratch/348/vsc34888/JointResearch/05.Models/06.Benchmarking/K.Investments_per_hour/RTS24_mod1_ByStages_nc10/openStarNet_RTS24_mod1_ByStages_nc10.log"
Set parameter Method to value 2
Set parameter MIPFocus to value 1
Set parameter Presolve to value 2
Set parameter RINS to value 100
Set parameter MIPGap to value 0.01
Set parameter Threads to value 36
Set parameter TimeLimit to value 259200
Set parameter IterationLimit to value 760000000
Gurobi Optimizer version 9.5.0 build v9.5.0rc5 (linux64)
Thread count: 36 physical cores, 36 logical processors, using up to 36 threads
Optimize a model with 3908 rows, 2636 columns and 10582 nonzeros
Model fingerprint: 0x3370db28
Variable types: 2615 continuous, 21 integer (21 binary)
Coefficient statistics:
  Matrix range     [1e-03, 7e+03]
  Objective range  [1e+00, 1e+00]
  Bounds range     [5e-05, 2e+00]
  RHS range        [5e-05, 2e+00]
Presolve removed 2328 rows and 1326 columns
Presolve time: 0.02s
Presolved: 1580 rows, 1310 columns, 5694 nonzeros
Variable types: 1289 continuous, 21 integer (21 binary)
Found heuristic solution: objective 87.2676446
Root relaxation presolve removed 4 rows and 4 columns
Root relaxation presolved: 1576 rows, 1306 columns, 5686 nonzeros

Root barrier log...

Ordering time: 0.02s

Barrier statistics:
 AA' NZ     : 2.814e+04
 Factor NZ  : 1.401e+05 (roughly 2 MB of memory)
 Factor Ops : 1.934e+07 (less than 1 second per iteration)
 Threads    : 36

                  Objective                Residual
Iter       Primal          Dual         Primal    Dual     Compl     Time
   0   1.83582061e+06 -1.03257488e+08  1.65e+01 1.50e+03  1.88e+05     0s
   1   4.77906967e+05 -4.82043421e+07  4.32e+00 1.29e-10  4.49e+04     0s
   2   5.68520327e+04 -2.37898736e+07  5.51e-01 5.00e-09  9.38e+03     0s
   3   8.18745329e+03 -3.17162039e+06  4.42e-02 5.41e-11  9.45e+02     0s
   4   4.63419625e+03 -1.10601905e+05  1.09e-03 3.27e-11  3.14e+01     0s
   5   2.49153175e+03 -1.81423160e+04  4.35e-13 2.18e-11  5.58e+00     0s
   6   6.29428489e+02 -4.01359337e+03  3.65e-13 3.64e-12  1.26e+00     0s
   7   2.00747785e+02 -1.11052289e+03  1.73e-13 7.28e-12  3.55e-01     0s
   8   1.40125903e+02 -2.60716331e+02  7.77e-14 3.64e-12  1.08e-01     0s
   9   8.57962984e+01 -8.13814240e+01  1.90e-13 3.64e-12  4.52e-02     0s
  10   5.86720093e+01  4.33017557e+00  4.55e-13 3.64e-12  1.47e-02     0s
  11   5.05349952e+01  2.96362952e+01  2.92e-13 3.64e-12  5.65e-03     0s
  12   4.38959374e+01  3.69892724e+01  4.79e-13 1.46e-11  1.87e-03     0s
  13   4.12097524e+01  3.83492889e+01  1.27e-12 3.64e-12  7.74e-04     0s
  14   4.05808064e+01  3.93819068e+01  8.60e-13 3.64e-12  3.24e-04     0s
  15   4.03572329e+01  3.98681944e+01  2.09e-12 1.46e-11  1.32e-04     0s
  16   4.01448616e+01  3.99853363e+01  4.29e-12 1.46e-11  4.32e-05     0s
  17   4.00848146e+01  4.00164908e+01  8.30e-12 3.64e-12  1.85e-05     0s
  18   4.00555677e+01  4.00513231e+01  9.71e-12 1.46e-11  1.15e-06     0s
  19   4.00534310e+01  4.00528291e+01  6.80e-12 1.46e-11  1.63e-07     0s
  20   4.00531242e+01  4.00531124e+01  4.36e-12 7.28e-12  3.19e-09     0s
  21   4.00531223e+01  4.00531223e+01  5.24e-12 3.64e-12  1.02e-11     0s

Barrier solved model in 21 iterations and 0.35 seconds (0.06 work units)
Optimal objective 4.00531223e+01


Root relaxation: objective 4.005312e+01, 188 iterations, 0.23 seconds (0.04 work units)

    Nodes    |    Current Node    |     Objective Bounds      |     Work
 Expl Unexpl |  Obj  Depth IntInf | Incumbent    BestBd   Gap | It/Node Time

     0     0   40.05312    0   14   87.26764   40.05312  54.1%     -    0s
     0     0   40.94507    0   11   87.26764   40.94507  53.1%     -    0s
H    0     0                      84.1060771   40.94507  51.3%     -    0s
H    0     0                      75.5586818   40.95601  45.8%     -    0s
     0     0   41.54944    0   13   75.55868   41.54944  45.0%     -    0s
     0     0   42.09340    0   11   75.55868   42.09340  44.3%     -    0s
H    0     0                      68.2526392   42.09340  38.3%     -    0s
     0     0   42.09340    0   10   68.25264   42.09340  38.3%     -    0s
     0     0   42.09340    0    9   68.25264   42.09340  38.3%     -    0s
     0     0   42.79535    0   11   68.25264   42.79535  37.3%     -    0s
     0     0   43.62640    0   10   68.25264   43.62640  36.1%     -    0s
     0     0   43.67668    0   10   68.25264   43.67668  36.0%     -    0s
H    0     0                      67.1530889   43.87138  34.7%     -    0s
     0     0   43.87138    0   10   67.15309   43.87138  34.7%     -    0s
H    0     0                      59.9903006   44.43568  25.9%     -    0s
     0     0   44.43568    0   13   59.99030   44.43568  25.9%     -    0s
     0     0   44.45133    0   10   59.99030   44.45133  25.9%     -    0s
     0     0   44.67774    0    9   59.99030   44.67774  25.5%     -    0s
H    0     0                      58.5621871   44.67774  23.7%     -    1s
     0     2   44.67774    0    9   58.56219   44.67774  23.7%     -    1s
H    6     8                      58.3703003   44.67774  23.5%  67.8    1s
   900   238   56.13107    9   10   58.37030   47.32539  18.9%  44.8    5s

Cutting planes:
  Gomory: 1
  Implied bound: 11
  MIR: 72
  Relax-and-lift: 10

Explored 2553 nodes (87162 simplex iterations) in 6.48 seconds (7.05 work units)
Thread count was 36 (of 36 available processors)

Solution count 8: 58.3703 58.5622 59.9903 ... 87.2676

Optimal solution found (tolerance 1.00e-02)
Best objective 5.837030032586e+01, best bound 5.837030032586e+01, gap 0.0000%

Gurobi 9.5.0 (linux64) logging started Fri Dec 15 10:38:57 2023

Set parameter LogFile to value "/lustre1/scratch/348/vsc34888/JointResearch/05.Models/06.Benchmarking/K.Investments_per_hour/RTS24_mod1_ByStages_nc10/openStarNet_RTS24_mod1_ByStages_nc10.log"
Set parameter Method to value 2
Set parameter MIPFocus to value 1
Set parameter Presolve to value 2
Set parameter RINS to value 100
Set parameter MIPGap to value 0.01
Set parameter Threads to value 36
Set parameter TimeLimit to value 259200
Set parameter IterationLimit to value 760000000
No parameters matching 'relax_integrality' found
Gurobi Optimizer version 9.5.0 build v9.5.0rc5 (linux64)
Thread count: 36 physical cores, 36 logical processors, using up to 36 threads
Optimize a model with 3908 rows, 2615 columns and 9637 nonzeros
Model fingerprint: 0x18a0cbe3
Coefficient statistics:
  Matrix range     [1e-03, 7e+03]
  Objective range  [1e+00, 1e+00]
  Bounds range     [5e-05, 2e+00]
  RHS range        [5e-05, 2e+01]
Presolve removed 3268 rows and 1477 columns
Presolve time: 0.01s
Presolved: 640 rows, 1158 columns, 2751 nonzeros

Ordering time: 0.00s

Barrier statistics:
 AA' NZ     : 1.396e+03
 Factor NZ  : 4.980e+03 (roughly 1 MB of memory)
 Factor Ops : 5.892e+04 (less than 1 second per iteration)
 Threads    : 1

                  Objective                Residual
Iter       Primal          Dual         Primal    Dual     Compl     Time
   0   2.50412147e+06 -4.83681731e+07  1.40e+01 4.65e+03  3.82e+05     0s
   1   1.55739028e+05 -3.88512854e+07  8.61e-01 1.71e-10  3.92e+04     0s
   2   4.64418056e+04 -1.29552004e+07  2.33e-01 2.82e-10  9.49e+03     0s
   3   1.98000371e+04 -3.05902527e+06  1.83e-02 1.46e-10  1.68e+03     0s
   4   1.44958804e+04 -1.23289349e+05  1.06e-03 9.81e-11  7.18e+01     0s
   5   4.17844687e+03 -2.42726767e+04  8.80e-06 2.60e-09  1.47e+01     0s
   6   7.96611413e+02 -6.54896283e+03  3.72e-07 7.19e-10  3.80e+00     0s
   7   2.81510201e+02 -9.42835879e+02  1.90e-09 9.35e-11  6.33e-01     0s
   8   1.99171057e+02 -4.24553547e+02  8.19e-10 3.89e-11  3.23e-01     0s
   9   1.33568721e+02 -1.65274760e+02  2.99e-10 2.91e-11  1.55e-01     0s
  10   7.97701779e+01  6.85707029e+00  5.24e-11 7.28e-12  3.77e-02     0s
  11   6.47116681e+01  4.18971662e+01  1.16e-11 3.64e-12  1.18e-02     0s
  12   6.00532609e+01  5.39734297e+01  2.42e-12 2.91e-11  3.14e-03     0s
  13   5.88960693e+01  5.71265429e+01  3.18e-12 5.82e-11  9.15e-04     0s
  14   5.84182498e+01  5.80910984e+01  2.85e-12 7.28e-12  1.69e-04     0s
  15   5.83818677e+01  5.82893387e+01  1.17e-12 2.91e-11  4.78e-05     0s
  16   5.83712325e+01  5.83527743e+01  2.70e-12 7.28e-12  9.54e-06     0s
  17   5.83704445e+01  5.83692901e+01  1.06e-12 2.91e-11  5.97e-07     0s
  18   5.83703273e+01  5.83702546e+01  2.37e-12 7.28e-12  3.76e-08     0s
  19   5.83703004e+01  5.83703002e+01  8.33e-12 7.28e-12  8.36e-11     0s
  20   5.83703003e+01  5.83703003e+01  7.11e-13 5.82e-11  1.21e-16     0s

Barrier solved model in 20 iterations and 0.02 seconds (0.01 work units)
Optimal objective 5.83703003e+01

Crossover log...

     127 DPushes remaining with DInf 0.0000000e+00                 0s
       0 DPushes remaining with DInf 0.0000000e+00                 0s

      37 PPushes remaining with PInf 0.0000000e+00                 0s
       0 PPushes remaining with PInf 0.0000000e+00                 0s

  Push phase complete: Pinf 0.0000000e+00, Dinf 4.6366494e-13      0s

Iteration    Objective       Primal Inf.    Dual Inf.      Time
      41    5.8370300e+01   0.000000e+00   0.000000e+00      0s

Use crossover to convert LP symmetric solution to basic solution...
Crossover log...

       0 DPushes remaining with DInf 0.0000000e+00                 0s

      20 PPushes remaining with PInf 0.0000000e+00                 0s
       0 PPushes remaining with PInf 0.0000000e+00                 0s

  Push phase complete: Pinf 0.0000000e+00, Dinf 5.5260575e-13      0s

Iteration    Objective       Primal Inf.    Dual Inf.      Time
      65    5.8370300e+01   0.000000e+00   0.000000e+00      0s

Solved in 65 iterations and 0.02 seconds (0.01 work units)
Optimal objective  5.837030033e+01

Gurobi 10.0.0 (win64) logging started Sat Dec 16 12:13:37 2023

Set parameter LogFile to value "C:\Users\ealvarezq\Documents\GitHub\Comillas\Models\JointResearch\05. Models\06.Benchmarking\K.Investments_per_hour\RTS24_mod1_ByStages_nc10/openStarNet_RTS24_mod1_ByStages_nc10.log"
Set parameter Method to value 2
Set parameter MIPFocus to value 1
Set parameter Presolve to value 2
Set parameter RINS to value 100
Set parameter MIPGap to value 0.01
Set parameter Threads to value 9
Set parameter TimeLimit to value 259200
Set parameter IterationLimit to value 760000000
Gurobi Optimizer version 10.0.0 build v10.0.0rc2 (win64)

CPU model: Intel(R) Core(TM) i7-8700 CPU @ 3.20GHz, instruction set [SSE2|AVX|AVX2]
Thread count: 6 physical cores, 12 logical processors, using up to 9 threads

Optimize a model with 3554 rows, 2409 columns and 9651 nonzeros
Model fingerprint: 0x5d705876
Variable types: 2388 continuous, 21 integer (21 binary)
Coefficient statistics:
  Matrix range     [1e-03, 8e+03]
  Objective range  [1e+00, 1e+00]
  Bounds range     [2e-04, 2e+00]
  RHS range        [2e-04, 2e+00]
Presolve removed 2118 rows and 1215 columns
Presolve time: 0.01s
Presolved: 1436 rows, 1194 columns, 5177 nonzeros
Variable types: 1173 continuous, 21 integer (21 binary)
Found heuristic solution: objective 67.9829289
Root relaxation presolve removed 3 rows and 3 columns
Root relaxation presolved: 1433 rows, 1191 columns, 5171 nonzeros

Root barrier log...

Ordering time: 0.03s

Barrier statistics:
 AA' NZ     : 2.391e+04
 Factor NZ  : 1.239e+05 (roughly 2 MB of memory)
 Factor Ops : 1.577e+07 (less than 1 second per iteration)
 Threads    : 9

                  Objective                Residual
Iter       Primal          Dual         Primal    Dual     Compl     Time
   0   5.83125757e+05 -1.26552583e+08  4.97e+00 4.35e+03  1.03e+05     0s
   1   3.98588213e+04 -3.13361442e+07  4.15e-01 2.07e-10  1.23e+04     0s
   2   1.15723801e+04 -2.12913508e+07  9.33e-02 1.02e-10  6.84e+03     0s
   3   3.94820247e+03 -1.04320302e+06  5.76e-04 1.19e-10  3.11e+02     0s
   4   3.35201416e+03 -4.00849363e+04  1.43e-13 5.09e-11  1.29e+01     0s
   5   9.62490236e+02 -8.52851738e+03  8.59e-14 2.00e-11  2.82e+00     0s
   6   2.18632545e+02 -2.27649876e+03  6.31e-14 8.19e-12  7.41e-01     0s
   7   1.07314605e+02 -5.49742524e+02  5.42e-14 1.09e-11  1.95e-01     0s
   8   5.31348121e+01 -8.12398212e+01  6.13e-14 9.16e-12  3.99e-02     0s
   9   3.24326633e+01 -1.62478939e+01  5.06e-14 6.73e-12  1.45e-02     0s
  10   2.92522815e+01  8.49963778e+00  6.56e-14 1.19e-11  6.16e-03     0s
  11   2.66497443e+01  1.58653578e+01  3.05e-13 2.14e-11  3.20e-03     0s
  12   2.49121804e+01  1.97804378e+01  1.91e-13 7.71e-12  1.52e-03     0s
  13   2.43003535e+01  2.33601068e+01  4.05e-13 5.55e-12  2.79e-04     0s
  14   2.41151927e+01  2.38287404e+01  1.93e-12 1.61e-11  8.51e-05     0s
  15   2.40544195e+01  2.39692366e+01  4.36e-12 1.12e-11  2.53e-05     0s
  16   2.40303015e+01  2.39925246e+01  2.45e-12 7.65e-12  1.12e-05     0s
  17   2.40155309e+01  2.40024687e+01  3.85e-12 1.50e-11  3.88e-06     0s
  18   2.40111820e+01  2.40070982e+01  8.63e-12 6.43e-12  1.21e-06     0s
  19   2.40102862e+01  2.40089675e+01  1.34e-11 8.39e-12  3.92e-07     0s
  20   2.40094510e+01  2.40093958e+01  1.90e-11 8.64e-12  1.64e-08     0s
  21   2.40094358e+01  2.40094309e+01  3.26e-11 4.49e-12  1.46e-09     0s
  22   2.40094346e+01  2.40094328e+01  5.12e-11 9.96e-12  5.24e-10     0s
  23   2.40094342e+01  2.40094340e+01  2.39e-10 4.79e-12  7.70e-11     0s
  24   2.40094342e+01  2.40094342e+01  1.38e-11 8.92e-12  2.01e-12     0s

Barrier solved model in 24 iterations and 0.11 seconds (0.06 work units)
Optimal objective 2.40094342e+01


Root relaxation: objective 2.400943e+01, 146 iterations, 0.09 seconds (0.04 work units)

    Nodes    |    Current Node    |     Objective Bounds      |     Work
 Expl Unexpl |  Obj  Depth IntInf | Incumbent    BestBd   Gap | It/Node Time

     0     0   24.00943    0   12   67.98293   24.00943  64.7%     -    0s
H    0     0                      59.2655963   24.37823  58.9%     -    0s
     0     0   24.37823    0   10   59.26560   24.37823  58.9%     -    0s
H    0     0                      58.9168498   24.37823  58.6%     -    0s
H    0     0                      57.5247462   24.50560  57.4%     -    0s
     0     0   24.50560    0   11   57.52475   24.50560  57.4%     -    0s
H    0     0                      53.4732878   24.52620  54.1%     -    0s
     0     0   24.52620    0   10   53.47329   24.52620  54.1%     -    0s
     0     0   24.71020    0   10   53.47329   24.71020  53.8%     -    0s
H    0     0                      53.1921908   24.71020  53.5%     -    0s
     0     0   24.71020    0   10   53.19219   24.71020  53.5%     -    0s
H    0     0                      51.4460194   26.04156  49.4%     -    0s
     0     0   26.04156    0    9   51.44602   26.04156  49.4%     -    0s
     0     0   26.50704    0   10   51.44602   26.50704  48.5%     -    0s
H    0     0                      47.1000088   26.68117  43.4%     -    0s
     0     0   26.68117    0   11   47.10001   26.68117  43.4%     -    0s
H    0     0                      42.2214823   26.68117  36.8%     -    0s
     0     2   26.68117    0   11   42.22148   26.68117  36.8%     -    0s
H  693   191                      41.8046279   32.35862  22.6%  43.8    2s
H 1754   221                      41.8046240   37.89186  9.36%  36.6    4s
  2091   137   41.74943   17    4   41.80462   38.55162  7.78%  34.8    5s

Cutting planes:
  Gomory: 2
  Implied bound: 10
  MIR: 51
  Relax-and-lift: 7

Explored 2502 nodes (81351 simplex iterations) in 5.68 seconds (5.47 work units)
Thread count was 9 (of 12 available processors)

Solution count 10: 41.8046 42.2215 47.1 ... 67.9829

Optimal solution found (tolerance 1.00e-02)
Best objective 4.180462404874e+01, best bound 4.180462404874e+01, gap 0.0000%

Gurobi 10.0.0 (win64) logging started Sat Dec 16 12:13:44 2023

Set parameter LogFile to value "C:\Users\ealvarezq\Documents\GitHub\Comillas\Models\JointResearch\05. Models\06.Benchmarking\K.Investments_per_hour\RTS24_mod1_ByStages_nc10/openStarNet_RTS24_mod1_ByStages_nc10.log"
Set parameter Method to value 2
Set parameter MIPFocus to value 1
Set parameter Presolve to value 2
Set parameter RINS to value 100
Set parameter MIPGap to value 0.01
Set parameter Threads to value 9
Set parameter TimeLimit to value 259200
Set parameter IterationLimit to value 760000000
No parameters matching 'relax_integrality' found
Gurobi Optimizer version 10.0.0 build v10.0.0rc2 (win64)

CPU model: Intel(R) Core(TM) i7-8700 CPU @ 3.20GHz, instruction set [SSE2|AVX|AVX2]
Thread count: 6 physical cores, 12 logical processors, using up to 9 threads

Optimize a model with 3554 rows, 2388 columns and 8790 nonzeros
Model fingerprint: 0xfb341cef
Coefficient statistics:
  Matrix range     [1e-03, 8e+03]
  Objective range  [1e+00, 1e+00]
  Bounds range     [2e-04, 2e+00]
  RHS range        [6e-06, 3e+01]
Presolve removed 2994 rows and 1365 columns
Presolve time: 0.00s
Presolved: 560 rows, 1035 columns, 2497 nonzeros

Ordering time: 0.00s

Barrier statistics:
 AA' NZ     : 1.350e+03
 Factor NZ  : 4.892e+03 (roughly 1 MB of memory)
 Factor Ops : 6.535e+04 (less than 1 second per iteration)
 Threads    : 1

                  Objective                Residual
Iter       Primal          Dual         Primal    Dual     Compl     Time
   0   2.83396314e+06 -2.94506415e+07  1.36e+01 1.43e+04  2.58e+05     0s
   1   1.57434895e+05 -2.27851581e+07  8.13e-01 1.25e+02  2.55e+04     0s
   2   3.80244692e+04 -9.01226854e+06  2.18e-01 1.66e+01  7.11e+03     0s
   3   1.59231761e+04 -1.37890413e+06  2.63e-02 1.02e-10  8.76e+02     0s
   4   8.70517626e+03 -8.69514985e+04  3.51e-04 8.73e-11  5.44e+01     0s
   5   2.91165715e+03 -1.78971446e+04  4.91e-06 5.82e-11  1.18e+01     0s
   6   6.77606542e+02 -4.39068279e+03  5.89e-07 1.16e-10  2.87e+00     0s
   7   1.77523637e+02 -7.60923210e+02  5.48e-12 4.33e-11  5.31e-01     0s
   8   8.88076503e+01 -1.18565227e+02  1.49e-12 2.91e-11  1.17e-01     0s
   9   6.12294447e+01 -1.67049048e+00  6.50e-13 6.06e-12  3.56e-02     0s
  10   4.83499509e+01  2.69932021e+01  3.36e-12 1.72e-11  1.21e-02     0s
  11   4.42672065e+01  3.82373296e+01  1.52e-12 2.10e-11  3.41e-03     0s
  12   4.25055919e+01  4.05151588e+01  2.89e-12 2.04e-11  1.13e-03     0s
  13   4.20143719e+01  4.13646952e+01  1.85e-12 3.70e-11  3.68e-04     0s
  14   4.18457299e+01  4.17429642e+01  1.95e-12 1.75e-11  5.82e-05     0s
  15   4.18118553e+01  4.17878281e+01  5.37e-12 7.01e-12  1.36e-05     0s
  16   4.18068749e+01  4.18012558e+01  2.00e-12 1.19e-11  3.18e-06     0s
  17   4.18049284e+01  4.18037581e+01  1.31e-11 3.00e-11  6.63e-07     0s
  18   4.18046835e+01  4.18045878e+01  1.99e-12 6.86e-12  5.42e-08     0s
  19   4.18046242e+01  4.18046223e+01  9.21e-12 3.49e-11  1.07e-09     0s
  20   4.18046241e+01  4.18046240e+01  1.17e-11 4.44e-11  1.46e-11     0s
  21   4.18046241e+01  4.18046241e+01  5.38e-12 3.30e-11  1.20e-13     0s

Barrier solved model in 21 iterations and 0.02 seconds (0.01 work units)
Optimal objective 4.18046241e+01

Crossover log...

     112 DPushes remaining with DInf 0.0000000e+00                 0s
       0 DPushes remaining with DInf 0.0000000e+00                 0s

      36 PPushes remaining with PInf 0.0000000e+00                 0s
       0 PPushes remaining with PInf 0.0000000e+00                 0s

  Push phase complete: Pinf 0.0000000e+00, Dinf 2.8604814e-13      0s

Iteration    Objective       Primal Inf.    Dual Inf.      Time
      41    4.1804624e+01   0.000000e+00   0.000000e+00      0s

Use crossover to convert LP symmetric solution to basic solution...
Crossover log...

       0 DPushes remaining with DInf 0.0000000e+00                 0s

      37 PPushes remaining with PInf 0.0000000e+00                 0s
       0 PPushes remaining with PInf 0.0000000e+00                 0s

  Push phase complete: Pinf 0.0000000e+00, Dinf 3.6652868e-13      0s

Iteration    Objective       Primal Inf.    Dual Inf.      Time
      85    4.1804624e+01   0.000000e+00   0.000000e+00      0s

Solved in 85 iterations and 0.02 seconds (0.01 work units)
Optimal objective  4.180462406e+01

Gurobi 9.5.0 (linux64) logging started Sat Dec 16 21:07:28 2023

Set parameter LogFile to value "/lustre1/scratch/348/vsc34888/JointResearch/05.Models/06.Benchmarking/K.Investments_per_hour/RTS24_mod1_ByStages_nc10/openStarNet_RTS24_mod1_ByStages_nc10.log"
Set parameter Method to value 2
Set parameter MIPFocus to value 1
Set parameter Presolve to value 2
Set parameter RINS to value 100
Set parameter MIPGap to value 0.01
Set parameter Threads to value 36
Set parameter TimeLimit to value 259200
Set parameter IterationLimit to value 760000000
Gurobi Optimizer version 9.5.0 build v9.5.0rc5 (linux64)
Thread count: 36 physical cores, 36 logical processors, using up to 36 threads
Optimize a model with 3553 rows, 2409 columns and 9650 nonzeros
Model fingerprint: 0xe4cc632d
Variable types: 2388 continuous, 21 integer (21 binary)
Coefficient statistics:
  Matrix range     [1e-03, 8e+03]
  Objective range  [1e+00, 1e+00]
  Bounds range     [2e-04, 2e+00]
  RHS range        [2e-04, 2e+00]
Presolve removed 2117 rows and 1215 columns
Presolve time: 0.02s
Presolved: 1436 rows, 1194 columns, 5177 nonzeros
Variable types: 1173 continuous, 21 integer (21 binary)
Found heuristic solution: objective 67.9829289
Root relaxation presolve removed 3 rows and 3 columns
Root relaxation presolved: 1433 rows, 1191 columns, 5171 nonzeros

Root barrier log...

Ordering time: 0.02s

Barrier statistics:
 AA' NZ     : 2.391e+04
 Factor NZ  : 1.194e+05 (roughly 2 MB of memory)
 Factor Ops : 1.511e+07 (less than 1 second per iteration)
 Threads    : 36

                  Objective                Residual
Iter       Primal          Dual         Primal    Dual     Compl     Time
   0   5.83108631e+05 -1.26551147e+08  4.97e+00 4.35e+03  1.03e+05     0s
   1   3.98555374e+04 -3.13360574e+07  4.15e-01 1.89e-10  1.23e+04     0s
   2   1.15715532e+04 -2.12912895e+07  9.33e-02 1.30e-09  6.84e+03     0s
   3   3.94832819e+03 -1.04319693e+06  5.76e-04 6.88e-11  3.11e+02     0s
   4   3.35224206e+03 -4.01040069e+04  2.59e-13 8.72e-11  1.29e+01     0s
   5   9.62195123e+02 -8.53071150e+03  6.66e-14 1.81e-11  2.82e+00     0s
   6   2.18605668e+02 -2.27749832e+03  5.18e-14 1.46e-11  7.41e-01     0s
   7   1.15231618e+02 -5.50820157e+02  5.33e-14 3.64e-12  1.98e-01     0s
   8   5.71929039e+01 -9.83980502e+01  4.56e-14 1.46e-11  4.62e-02     0s
   9   3.48696827e+01 -2.22236732e+01  5.59e-14 7.28e-12  1.70e-02     0s
  10   2.84080000e+01  9.10736688e+00  1.45e-13 7.28e-12  5.73e-03     0s
  11   2.64037612e+01  1.67468409e+01  2.74e-13 3.64e-12  2.87e-03     0s
  12   2.49406573e+01  2.13785797e+01  2.46e-13 7.28e-12  1.06e-03     0s
  13   2.42505610e+01  2.34910275e+01  9.75e-13 7.28e-12  2.26e-04     0s
  14   2.40816539e+01  2.38553828e+01  2.62e-12 1.46e-11  6.72e-05     0s
  15   2.40393689e+01  2.39450120e+01  2.70e-12 1.46e-11  2.80e-05     0s
  16   2.40186377e+01  2.39823961e+01  2.60e-12 3.64e-12  1.08e-05     0s
  17   2.40120586e+01  2.40038695e+01  2.34e-12 7.28e-12  2.43e-06     0s
  18   2.40101104e+01  2.40087393e+01  8.68e-12 7.28e-12  4.07e-07     0s
  19   2.40095384e+01  2.40093040e+01  4.81e-11 1.46e-11  6.96e-08     0s
  20   2.40094407e+01  2.40094247e+01  4.30e-12 7.28e-12  4.76e-09     0s
  21   2.40094359e+01  2.40094295e+01  5.29e-10 7.28e-12  1.89e-09     0s
  22   2.40094343e+01  2.40094339e+01  6.49e-10 7.28e-12  1.09e-10     0s
  23   2.40094342e+01  2.40094342e+01  4.62e-10 7.28e-12  3.94e-12     0s

Barrier solved model in 23 iterations and 0.25 seconds (0.06 work units)
Optimal objective 2.40094342e+01


Root relaxation: objective 2.400943e+01, 144 iterations, 0.21 seconds (0.03 work units)

    Nodes    |    Current Node    |     Objective Bounds      |     Work
 Expl Unexpl |  Obj  Depth IntInf | Incumbent    BestBd   Gap | It/Node Time

     0     0   24.00943    0   12   67.98293   24.00943  64.7%     -    0s
H    0     0                      56.8891027   24.00943  57.8%     -    0s
     0     0   24.33630    0    8   56.88910   24.33630  57.2%     -    0s
     0     0   24.53722    0   11   56.88910   24.53722  56.9%     -    0s
H    0     0                      53.4732878   24.57285  54.0%     -    0s
     0     0   24.57285    0   11   53.47329   24.57285  54.0%     -    0s
     0     0   24.64255    0    9   53.47329   24.64255  53.9%     -    0s
H    0     0                      51.0070558   24.65688  51.7%     -    0s
     0     0   24.65688    0   12   51.00706   24.65688  51.7%     -    0s
     0     0   26.04156    0   12   51.00706   26.04156  48.9%     -    0s
     0     0   26.30761    0   11   51.00706   26.30761  48.4%     -    0s
     0     0   26.51170    0   11   51.00706   26.51170  48.0%     -    0s
H    0     0                      42.4587773   26.51170  37.6%     -    0s
     0     2   26.51170    0   11   42.45878   26.51170  37.6%     -    1s
H  111   119                      42.2306279   27.09721  35.8%  79.0    1s
H  113   119                      42.2214823   27.09721  35.8%  78.3    1s
H  136   142                      41.8046279   28.23360  32.5%  75.5    2s

Cutting planes:
  Gomory: 4
  Implied bound: 10
  MIR: 84
  Relax-and-lift: 7

Explored 2154 nodes (68014 simplex iterations) in 2.88 seconds (2.83 work units)
Thread count was 36 (of 36 available processors)

Solution count 8: 41.8046 42.2215 42.2306 ... 67.9829

Optimal solution found (tolerance 1.00e-02)
Best objective 4.180462786484e+01, best bound 4.180462786484e+01, gap 0.0000%

Gurobi 9.5.0 (linux64) logging started Sat Dec 16 21:07:31 2023

Set parameter LogFile to value "/lustre1/scratch/348/vsc34888/JointResearch/05.Models/06.Benchmarking/K.Investments_per_hour/RTS24_mod1_ByStages_nc10/openStarNet_RTS24_mod1_ByStages_nc10.log"
Set parameter Method to value 2
Set parameter MIPFocus to value 1
Set parameter Presolve to value 2
Set parameter RINS to value 100
Set parameter MIPGap to value 0.01
Set parameter Threads to value 36
Set parameter TimeLimit to value 259200
Set parameter IterationLimit to value 760000000
No parameters matching 'relax_integrality' found
Gurobi Optimizer version 9.5.0 build v9.5.0rc5 (linux64)
Thread count: 36 physical cores, 36 logical processors, using up to 36 threads
Optimize a model with 3553 rows, 2388 columns and 8789 nonzeros
Model fingerprint: 0xefb64ce2
Coefficient statistics:
  Matrix range     [1e-03, 8e+03]
  Objective range  [1e+00, 1e+00]
  Bounds range     [2e-04, 2e+00]
  RHS range        [2e-04, 3e+01]
Presolve removed 2944 rows and 1317 columns
Presolve time: 0.00s
Presolved: 609 rows, 1082 columns, 2642 nonzeros

Ordering time: 0.00s

Barrier statistics:
 AA' NZ     : 1.335e+03
 Factor NZ  : 4.976e+03 (roughly 1 MB of memory)
 Factor Ops : 6.430e+04 (less than 1 second per iteration)
 Threads    : 1

                  Objective                Residual
Iter       Primal          Dual         Primal    Dual     Compl     Time
   0   1.81860946e+06 -5.08812928e+07  7.94e+00 1.77e+04  2.70e+05     0s
   1   9.31427901e+04 -3.44175425e+07  4.69e-01 1.46e-10  3.09e+04     0s
   2   3.07309217e+04 -1.21905741e+07  1.21e-01 1.59e-10  8.47e+03     0s
   3   1.39952878e+04 -2.05903788e+06  5.67e-03 1.17e-10  1.19e+03     0s
   4   9.65301573e+03 -6.73791102e+04  5.96e-12 9.95e-11  4.33e+01     0s
   5   2.30344832e+03 -1.79549089e+04  3.91e-12 2.91e-11  1.14e+01     0s
   6   5.52606546e+02 -4.29660172e+03  6.92e-13 7.28e-12  2.72e+00     0s
   7   1.63486265e+02 -8.09008553e+02  1.77e-13 7.28e-12  5.46e-01     0s
   8   9.26249898e+01 -8.80092263e+01  2.99e-13 2.91e-11  1.01e-01     0s
   9   5.99282364e+01  1.45407471e+00  7.15e-14 2.91e-11  3.29e-02     0s
  10   4.89667573e+01  2.76818419e+01  3.54e-13 2.91e-11  1.20e-02     0s
  11   4.48898556e+01  3.93017836e+01  1.40e-13 8.73e-11  3.14e-03     0s
  12   4.24783402e+01  4.08427479e+01  1.13e-12 2.91e-11  9.19e-04     0s
  13   4.20151325e+01  4.16436112e+01  8.18e-13 2.91e-11  2.09e-04     0s
  14   4.18468540e+01  4.17852642e+01  7.12e-12 7.28e-12  3.46e-05     0s
  15   4.18146663e+01  4.18012066e+01  4.86e-12 2.91e-11  7.56e-06     0s
  16   4.18108773e+01  4.18026877e+01  3.83e-12 2.91e-11  4.60e-06     0s
  17   4.18052597e+01  4.18041646e+01  3.25e-12 2.91e-11  6.15e-07     0s
  18   4.18046326e+01  4.18045940e+01  4.28e-12 5.82e-11  2.17e-08     0s
  19   4.18046280e+01  4.18046272e+01  2.09e-12 2.91e-11  4.62e-10     0s
  20   4.18046279e+01  4.18046279e+01  5.48e-13 2.91e-11  4.62e-13     0s

Barrier solved model in 20 iterations and 0.02 seconds (0.01 work units)
Optimal objective 4.18046279e+01

Crossover log...

     111 DPushes remaining with DInf 0.0000000e+00                 0s
       0 DPushes remaining with DInf 0.0000000e+00                 0s

      36 PPushes remaining with PInf 0.0000000e+00                 0s
       0 PPushes remaining with PInf 0.0000000e+00                 0s

  Push phase complete: Pinf 0.0000000e+00, Dinf 5.2441768e-13      0s

Iteration    Objective       Primal Inf.    Dual Inf.      Time
      40    4.1804628e+01   0.000000e+00   0.000000e+00      0s

Use crossover to convert LP symmetric solution to basic solution...
Crossover log...

      30 PPushes remaining with PInf 0.0000000e+00                 0s
       0 PPushes remaining with PInf 0.0000000e+00                 0s

  Push phase complete: Pinf 0.0000000e+00, Dinf 3.6230821e-13      0s

Iteration    Objective       Primal Inf.    Dual Inf.      Time
      73    4.1804628e+01   0.000000e+00   0.000000e+00      0s

Solved in 73 iterations and 0.02 seconds (0.01 work units)
Optimal objective  4.180462786e+01

Gurobi 11.0.0 (linux64) logging started Mon Apr 15 15:13:12 2024

Set parameter LogFile to value "/lustre1/scratch/348/vsc34888/JointResearch/05.Models/06.Benchmarking/K.Investments_per_hour/RTS24_mod1_ByStages_nc10/openStarNet_RTS24_mod1_ByStages_nc10.log"
Set parameter Method to value 2
Set parameter MIPFocus to value 1
Set parameter Presolve to value 2
Set parameter RINS to value 100
Set parameter MIPGap to value 0.01
Set parameter Threads to value 36
Set parameter TimeLimit to value 259200
Set parameter IterationLimit to value 760000000
Gurobi Optimizer version 11.0.0 build v11.0.0rc2 (linux64 - "Rocky Linux 8.8 (Green Obsidian)")

CPU model: Intel(R) Xeon(R) Gold 6240 CPU @ 2.60GHz, instruction set [SSE2|AVX|AVX2|AVX512]
Thread count: 36 physical cores, 36 logical processors, using up to 36 threads

Optimize a model with 3553 rows, 2409 columns and 9650 nonzeros
Model fingerprint: 0x104bc828
Variable types: 2388 continuous, 21 integer (21 binary)
Coefficient statistics:
  Matrix range     [1e-03, 8e+03]
  Objective range  [1e+00, 1e+00]
  Bounds range     [2e-04, 2e+00]
  RHS range        [2e-04, 2e+00]
Presolve removed 2117 rows and 1215 columns
Presolve time: 0.03s
Presolved: 1436 rows, 1194 columns, 5177 nonzeros
Variable types: 1173 continuous, 21 integer (21 binary)
Found heuristic solution: objective 67.9829289
Root relaxation presolve removed 3 rows and 3 columns
Root relaxation presolved: 1433 rows, 1191 columns, 5171 nonzeros

Root barrier log...

Ordering time: 0.03s

Barrier statistics:
 AA' NZ     : 2.391e+04
 Factor NZ  : 1.182e+05 (roughly 2 MB of memory)
 Factor Ops : 1.491e+07 (less than 1 second per iteration)
 Threads    : 36

                  Objective                Residual
Iter       Primal          Dual         Primal    Dual     Compl     Time
   0   2.58631335e+06 -1.16997764e+08  2.16e+01 4.35e+03  3.00e+05     0s
   1   7.27329847e+05 -6.60559887e+07  6.11e+00 5.12e+01  8.05e+04     0s
   2   2.20610908e+04 -2.62401992e+07  2.65e-01 3.00e-10  9.59e+03     0s
   3   6.39913701e+03 -6.24152027e+06  2.50e-02 1.42e-10  1.93e+03     0s
   4   3.75713740e+03 -8.68963551e+04  3.06e-13 4.00e-11  2.69e+01     0s
   5   1.62676567e+03 -1.81227754e+04  4.03e-13 1.46e-11  5.86e+00     0s
   6   3.81257176e+02 -4.42037005e+03  2.11e-13 7.28e-12  1.43e+00     0s
   7   1.63548232e+02 -1.40915782e+03  3.13e-13 3.64e-12  4.67e-01     0s
   8   9.41458574e+01 -2.38636968e+02  7.38e-14 2.91e-11  9.88e-02     0s
   9   4.83326711e+01 -7.96958655e+01  1.55e-13 1.46e-11  3.80e-02     0s
  10   3.17139269e+01 -2.01201992e+01  8.79e-14 1.46e-11  1.54e-02     0s
  11   2.79030158e+01  5.44098799e+00  2.93e-13 1.46e-11  6.67e-03     0s
  12   2.60167877e+01  1.65357145e+01  1.11e-13 1.46e-11  2.82e-03     0s
  13   2.45801896e+01  2.27648653e+01  2.04e-13 7.28e-12  5.39e-04     0s
  14   2.42205382e+01  2.36141045e+01  3.30e-12 7.28e-12  1.80e-04     0s
  15   2.41041778e+01  2.38973371e+01  1.29e-11 3.64e-12  6.14e-05     0s
  16   2.40482529e+01  2.39710944e+01  1.38e-11 1.09e-11  2.29e-05     0s
  17   2.40259263e+01  2.39922729e+01  1.00e-11 7.28e-12  9.99e-06     0s
  18   2.40131317e+01  2.40080686e+01  1.50e-11 3.64e-12  1.50e-06     0s
  19   2.40109832e+01  2.40091359e+01  6.19e-11 2.91e-11  5.48e-07     0s
  20   2.40094711e+01  2.40093753e+01  6.07e-10 1.46e-11  2.84e-08     0s
  21   2.40094422e+01  2.40094237e+01  8.61e-11 7.28e-12  5.49e-09     0s
  22   2.40094356e+01  2.40094334e+01  3.01e-10 7.28e-12  6.36e-10     0s
  23   2.40094342e+01  2.40094341e+01  4.09e-11 3.64e-12  3.32e-11     0s

Barrier solved model in 23 iterations and 0.34 seconds (0.06 work units)
Optimal objective 2.40094342e+01


Root relaxation: objective 2.400943e+01, 146 iterations, 0.23 seconds (0.04 work units)

    Nodes    |    Current Node    |     Objective Bounds      |     Work
 Expl Unexpl |  Obj  Depth IntInf | Incumbent    BestBd   Gap | It/Node Time

     0     0   24.00943    0   12   67.98293   24.00943  64.7%     -    0s
H    0     0                      56.8891027   24.00943  57.8%     -    0s
     0     0   24.47196    0   10   56.88910   24.47196  57.0%     -    0s
H    0     0                      53.4732878   24.47196  54.2%     -    0s
     0     0   24.67714    0   11   53.47329   24.67714  53.9%     -    0s
     0     0   24.76631    0   11   53.47329   24.76631  53.7%     -    0s
     0     0   24.76631    0    8   53.47329   24.76631  53.7%     -    0s
     0     0   24.76631    0    8   53.47329   24.76631  53.7%     -    0s
H    0     0                      53.4484060   24.83194  53.5%     -    0s
     0     0   25.77104    0    8   53.44841   25.77104  51.8%     -    0s
     0     0   26.01496    0   11   53.44841   26.01496  51.3%     -    0s
     0     0   26.02216    0   14   53.44841   26.02216  51.3%     -    0s
H    0     0                      42.8113358   26.02216  39.2%     -    1s
     0     2   26.02216    0   14   42.81134   26.02216  39.2%     -    1s
H   99   121                      42.4587773   27.30476  35.7%  64.2    2s
H  105   121                      42.2306279   27.30476  35.3%  63.5    2s
H  184   171                      42.2306256   29.11462  31.1%  64.1    2s
H  279   207                      42.0074359   29.11462  30.7%  57.3    3s
H  283   207                      41.8046279   29.11462  30.4%  57.0    3s
   398   219   38.09769   11    9   41.80463   29.11462  30.4%  53.0    5s

Cutting planes:
  Gomory: 1
  Implied bound: 18
  MIR: 62
  Relax-and-lift: 3

Explored 2164 nodes (78303 simplex iterations) in 5.44 seconds (5.46 work units)
Thread count was 36 (of 36 available processors)

Solution count 9: 41.8046 42.0074 42.2306 ... 67.9829

Optimal solution found (tolerance 1.00e-02)
Best objective 4.180462786484e+01, best bound 4.180462786484e+01, gap 0.0000%

Gurobi 11.0.0 (linux64) logging started Mon Apr 15 15:13:18 2024

Set parameter LogFile to value "/lustre1/scratch/348/vsc34888/JointResearch/05.Models/06.Benchmarking/K.Investments_per_hour/RTS24_mod1_ByStages_nc10/openStarNet_RTS24_mod1_ByStages_nc10.log"
Set parameter Method to value 2
Set parameter MIPFocus to value 1
Set parameter Presolve to value 2
Set parameter RINS to value 100
Set parameter MIPGap to value 0.01
Set parameter Threads to value 36
Set parameter TimeLimit to value 259200
Set parameter IterationLimit to value 760000000
Gurobi Optimizer version 11.0.0 build v11.0.0rc2 (linux64 - "Rocky Linux 8.8 (Green Obsidian)")

CPU model: Intel(R) Xeon(R) Gold 6240 CPU @ 2.60GHz, instruction set [SSE2|AVX|AVX2|AVX512]
Thread count: 36 physical cores, 36 logical processors, using up to 36 threads

Optimize a model with 3553 rows, 2388 columns and 8789 nonzeros
Model fingerprint: 0x4825c289
Coefficient statistics:
  Matrix range     [1e-03, 8e+03]
  Objective range  [1e+00, 1e+00]
  Bounds range     [2e-04, 2e+00]
  RHS range        [2e-04, 3e+01]
Presolve removed 2995 rows and 1369 columns
Presolve time: 0.00s
Presolved: 558 rows, 1031 columns, 2451 nonzeros

Ordering time: 0.00s

Barrier statistics:
 AA' NZ     : 1.318e+03
 Factor NZ  : 4.870e+03 (roughly 1 MB of memory)
 Factor Ops : 5.939e+04 (less than 1 second per iteration)
 Threads    : 1

                  Objective                Residual
Iter       Primal          Dual         Primal    Dual     Compl     Time
   0   1.75541155e+06 -5.19980866e+07  7.86e+00 1.74e+04  2.67e+05     0s
   1   9.31262322e+04 -3.49283677e+07  4.64e-01 1.75e-10  3.08e+04     0s
   2   2.85856562e+04 -9.34819004e+06  1.10e-01 2.35e-10  6.46e+03     0s
   3   1.36886810e+04 -8.43775659e+05  4.74e-03 1.16e-10  4.90e+02     0s
   4   7.55068625e+03 -3.11865848e+04  2.94e-12 1.07e-10  2.15e+01     0s
   5   2.01971824e+03 -5.55455432e+03  1.58e-12 8.73e-11  4.21e+00     0s
   6   3.12067616e+02 -1.78078862e+03  3.00e-13 2.91e-11  1.16e+00     0s
   7   1.21231045e+02 -2.81508906e+02  4.32e-13 7.28e-12  2.24e-01     0s
   8   6.47194623e+01 -1.46346192e+01  2.70e-13 2.91e-11  4.41e-02     0s
   9   4.76095809e+01  2.42244905e+01  1.53e-13 7.28e-12  1.30e-02     0s
  10   4.35418171e+01  3.67342520e+01  6.84e-14 7.28e-12  3.79e-03     0s
  11   4.23369226e+01  4.03899831e+01  4.00e-14 7.28e-12  1.08e-03     0s
  12   4.20211460e+01  4.13746218e+01  3.29e-13 7.28e-12  3.60e-04     0s
  13   4.18556671e+01  4.16959478e+01  9.62e-13 2.91e-11  8.88e-05     0s
  14   4.18212399e+01  4.17841371e+01  6.98e-13 2.91e-11  2.06e-05     0s
  15   4.18077304e+01  4.18018516e+01  7.17e-13 2.91e-11  3.27e-06     0s
  16   4.18051987e+01  4.18037546e+01  7.55e-13 1.46e-11  8.03e-07     0s
  17   4.18046721e+01  4.18046126e+01  6.18e-13 7.28e-12  3.31e-08     0s
  18   4.18046279e+01  4.18046279e+01  6.68e-13 7.28e-12  8.88e-12     0s
  19   4.18046279e+01  4.18046279e+01  2.66e-13 7.28e-12  8.88e-15     0s

Barrier solved model in 19 iterations and 0.01 seconds (0.01 work units)
Optimal objective 4.18046279e+01

Crossover log...

     110 DPushes remaining with DInf 0.0000000e+00                 0s

      36 PPushes remaining with PInf 0.0000000e+00                 0s
       0 PPushes remaining with PInf 0.0000000e+00                 0s

  Push phase complete: Pinf 0.0000000e+00, Dinf 4.6716747e-13      0s

Iteration    Objective       Primal Inf.    Dual Inf.      Time
      39    4.1804628e+01   0.000000e+00   0.000000e+00      0s

Use crossover to convert LP symmetric solution to basic solution...
Crossover log...

      31 PPushes remaining with PInf 0.0000000e+00                 0s
       0 PPushes remaining with PInf 0.0000000e+00                 0s

  Push phase complete: Pinf 0.0000000e+00, Dinf 4.4015728e-13      0s

Iteration    Objective       Primal Inf.    Dual Inf.      Time
      73    4.1804628e+01   0.000000e+00   0.000000e+00      0s

Solved in 73 iterations and 0.02 seconds (0.01 work units)
Optimal objective  4.180462786e+01
